! MP2 6-31G(d,p) optts numfreq irc

* xyzfile 1 1 oh3plus-input-coordinates.xyz
