! MP2 6-311G** opt numfreq

* xyzfile 0 1 dimer-input-coordinates.xyz
