! MP2 6-31G(d,p) optts numfreq irc

%pal
  nprocs=9
end

* xyz 0 1
C     -3.532497    1.667349   -0.155022
C     -2.770872    0.543186   -0.845226
C     -1.422876    2.941608   -0.841780
C     -1.335170    0.443172   -0.338395
H     -0.770041   -0.232092   -0.991589
C     -2.822507    3.020242   -0.239812
H     -3.676713    1.406277    0.901022
C     -0.619410    1.792377   -0.246269
H     -0.897158    3.889141   -0.678450
H     -0.407301    2.012226    0.807054
H     -2.766456    0.715361   -1.928305
H     -4.536877    1.751142   -0.586141
H     -3.285908   -0.410515   -0.685305
H     -1.332053   -0.025340    0.653815
H      0.354838    1.726779   -0.744542
H     -1.497163    2.811896   -1.928470
H     -3.427783    3.719560   -0.828481
H     -2.761072    3.449374    0.767724
*

