! MP2 6-31G** opt numfreq

* xyzfile 0 1 ethane-geometry.xyz
