! MP2 6-31G** opt numfreq

* xyzfile 0 2 ethyl-radical-geometry.xyz
