! MP2 6-31G** opt numfreq

* xyzfile 0 2 h-geometry.xyz
