! MP2 6-31G** opt numfreq

* xyzfile 0 1 h2-geometry.xyz
