! MP2 6-31G(d,p) optts numfreq irc

%pal
  nprocs=9
end

* xyz 0 1
N     -1.614793    0.772383    0.000000
H     -2.302069    0.574089   -0.741102
H     -0.767917    1.303838    0.218676
H     -1.856018    0.234689    0.844746
*

