! MP2 6-31G** opt freq

* xyzfile 0 1 hydrogen-bond-input-coordinates.xyz
