! MP2 6-311G** opt numfreq

* xyzfile 0 1 /home/vivek/mm/lab5/6-311/nh3/monomer/monomer-input-coordinates.xyz
