! B3LYP 6-31G(d,p) opt 

%pal
  nprocs 6
end

%geom
  Scan
    D 2 0 1 3 = 90, 180, 10
  end
end

* xyz 0 1  
O      1.898664    1.443259    0.020666
O      0.753450    0.429302   -0.020679
H      1.709786    2.306435   -0.524286
H      0.942328   -0.433874    0.524274
*

