! B3LYP 6-31G(d,p) opt 

%pal
  nprocs 6 
end

%geom
  Scan
    A 1 0 2 = 94.0, 114.0, 21
  end
end

* xyz 0 1  
O     -4.384610    2.044134    0.002088
H     -3.527125    1.831276    0.657392
H     -3.999512    2.829153   -0.665428
*

