! MP2 6-31G** opt numfreq

* xyzfile 0 1 hydrogen-bond-input-coordinates.xyz
